# Minimal VASP SCF settings for DCBF xill smoke tests
ISTART = 0
ISPIN = 1
LREAL = Auto
ENCUT = 520
LWAVE = .FALSE.
LCHARG = .FALSE.
ISMEAR = 0
SIGMA = 0.05
NELM = 100
NELMIN = 6
EDIFF = 1E-06
GGA = PE
KSPACING = 0.25
NCORE = 4
